k = 100;
b = 50;
AtomicConstraints =  [|
2, 23|
	2, 24|
	2, 64|
	2, 72|
	2, 29|
	2, 30|
	2, 31|
	2, 55|
	2, 74|
	2, 32|
	2, 33|
	2, 34|
	2, 71|
	2, 35|
	2, 36|
	2, 37|
	2, 38|
	2, 39|
	2, 65|
	2, 77|
	2, 78|
	2, 83|
	2, 98|
	2, 95|
	2, 80|
	2, 92|
	2, 96|
	2, 49|
	2, 79|
	2, 50|
	2, 81|
	2, 99|
	2, 88|
	2, 89|
	2, 97|
	2, 63|
	2, 56|
	2, 61|
	2, 91|
	2, 90|
	2, 84|
	2, 94|
	2, 100|
	2, 62|
	2, 53|
	3, 23|
	3, 24|
	3, 64|
	3, 29|
	3, 30|
	3, 31|
	3, 55|
	3, 74|
	3, 32|
	3, 33|
	3, 34|
	3, 71|
	3, 35|
	3, 36|
	3, 37|
	3, 38|
	3, 39|
	3, 65|
	3, 77|
	3, 78|
	3, 98|
	3, 95|
	3, 80|
	3, 92|
	3, 96|
	3, 49|
	3, 50|
	3, 81|
	3, 99|
	3, 88|
	3, 89|
	3, 63|
	3, 56|
	3, 61|
	3, 91|
	3, 90|
	3, 84|
	3, 94|
	3, 100|
	3, 62|
	3, 53|
	4, 23|
	4, 24|
	4, 64|
	4, 29|
	4, 30|
	4, 31|
	4, 55|
	4, 74|
	4, 32|
	4, 33|
	4, 34|
	4, 71|
	4, 35|
	4, 36|
	4, 37|
	4, 38|
	4, 39|
	4, 65|
	4, 77|
	4, 78|
	4, 98|
	4, 95|
	4, 80|
	4, 92|
	4, 96|
	4, 49|
	4, 50|
	4, 81|
	4, 88|
	4, 89|
	4, 56|
	4, 61|
	4, 91|
	4, 90|
	4, 84|
	4, 94|
	4, 100|
	4, 62|
	4, 53|
	5, 24|
	5, 64|
	5, 29|
	5, 30|
	5, 31|
	5, 55|
	5, 74|
	5, 32|
	5, 33|
	5, 34|
	5, 71|
	5, 35|
	5, 36|
	5, 37|
	5, 38|
	5, 39|
	5, 65|
	5, 77|
	5, 78|
	5, 98|
	5, 95|
	5, 80|
	5, 92|
	5, 96|
	5, 49|
	5, 81|
	5, 89|
	5, 56|
	5, 61|
	5, 91|
	5, 90|
	5, 84|
	5, 94|
	5, 100|
	5, 62|
	5, 53|
	1, 51|
	1, 23|
	1, 24|
	1, 25|
	1, 60|
	1, 59|
	1, 58|
	1, 57|
	1, 66|
	1, 26|
	1, 54|
	1, 27|
	1, 64|
	1, 68|
	1, 69|
	1, 70|
	1, 28|
	1, 72|
	1, 29|
	1, 30|
	1, 31|
	1, 55|
	1, 74|
	1, 35|
	1, 36|
	1, 37|
	1, 77|
	1, 78|
	1, 40|
	1, 41|
	1, 42|
	1, 82|
	1, 43|
	1, 44|
	1, 83|
	1, 87|
	1, 73|
	1, 76|
	1, 45|
	1, 46|
	1, 47|
	1, 48|
	1, 52|
	1, 98|
	1, 95|
	1, 80|
	1, 92|
	1, 96|
	1, 49|
	1, 79|
	1, 50|
	1, 81|
	1, 99|
	1, 88|
	1, 89|
	1, 75|
	1, 97|
	1, 93|
	1, 63|
	1, 85|
	1, 67|
	1, 86|
	1, 56|
	1, 61|
	1, 91|
	1, 90|
	1, 84|
	1, 94|
	1, 100|
	1, 62|
	1, 53|
	7, 1|
	7, 6|
	7, 9|
	7, 51|
	7, 23|
	7, 24|
	7, 25|
	7, 60|
	7, 59|
	7, 58|
	7, 57|
	7, 66|
	7, 26|
	7, 54|
	7, 27|
	7, 64|
	7, 68|
	7, 69|
	7, 70|
	7, 28|
	7, 72|
	7, 29|
	7, 30|
	7, 31|
	7, 55|
	7, 74|
	7, 32|
	7, 33|
	7, 35|
	7, 36|
	7, 37|
	7, 38|
	7, 39|
	7, 77|
	7, 78|
	7, 40|
	7, 41|
	7, 42|
	7, 82|
	7, 43|
	7, 44|
	7, 83|
	7, 87|
	7, 73|
	7, 76|
	7, 45|
	7, 46|
	7, 47|
	7, 48|
	7, 52|
	7, 98|
	7, 95|
	7, 80|
	7, 92|
	7, 96|
	7, 49|
	7, 79|
	7, 50|
	7, 81|
	7, 99|
	7, 88|
	7, 89|
	7, 75|
	7, 97|
	7, 93|
	7, 63|
	7, 85|
	7, 67|
	7, 86|
	7, 56|
	7, 61|
	7, 91|
	7, 90|
	7, 84|
	7, 94|
	7, 100|
	7, 62|
	7, 53|
	8, 1|
	8, 6|
	8, 9|
	8, 17|
	8, 51|
	8, 23|
	8, 24|
	8, 25|
	8, 60|
	8, 59|
	8, 58|
	8, 57|
	8, 66|
	8, 26|
	8, 54|
	8, 27|
	8, 64|
	8, 68|
	8, 69|
	8, 70|
	8, 28|
	8, 72|
	8, 29|
	8, 30|
	8, 31|
	8, 55|
	8, 74|
	8, 32|
	8, 33|
	8, 34|
	8, 35|
	8, 36|
	8, 37|
	8, 38|
	8, 39|
	8, 65|
	8, 77|
	8, 78|
	8, 41|
	8, 42|
	8, 82|
	8, 43|
	8, 44|
	8, 83|
	8, 87|
	8, 73|
	8, 76|
	8, 45|
	8, 46|
	8, 47|
	8, 52|
	8, 98|
	8, 95|
	8, 80|
	8, 92|
	8, 96|
	8, 49|
	8, 79|
	8, 50|
	8, 81|
	8, 99|
	8, 88|
	8, 89|
	8, 75|
	8, 97|
	8, 93|
	8, 63|
	8, 85|
	8, 67|
	8, 86|
	8, 56|
	8, 61|
	8, 91|
	8, 90|
	8, 84|
	8, 94|
	8, 100|
	8, 62|
	8, 53|
	6, 51|
	6, 23|
	6, 24|
	6, 25|
	6, 60|
	6, 59|
	6, 58|
	6, 57|
	6, 66|
	6, 26|
	6, 54|
	6, 27|
	6, 64|
	6, 68|
	6, 69|
	6, 70|
	6, 28|
	6, 72|
	6, 29|
	6, 30|
	6, 31|
	6, 55|
	6, 74|
	6, 32|
	6, 35|
	6, 36|
	6, 37|
	6, 38|
	6, 77|
	6, 78|
	6, 41|
	6, 42|
	6, 82|
	6, 43|
	6, 44|
	6, 83|
	6, 87|
	6, 73|
	6, 76|
	6, 45|
	6, 46|
	6, 47|
	6, 52|
	6, 98|
	6, 95|
	6, 80|
	6, 92|
	6, 96|
	6, 49|
	6, 79|
	6, 50|
	6, 81|
	6, 99|
	6, 88|
	6, 89|
	6, 75|
	6, 97|
	6, 93|
	6, 63|
	6, 85|
	6, 67|
	6, 86|
	6, 56|
	6, 61|
	6, 91|
	6, 90|
	6, 84|
	6, 94|
	6, 100|
	6, 62|
	6, 53|
	10, 6|
	10, 9|
	10, 17|
	10, 18|
	10, 23|
	10, 24|
	10, 25|
	10, 60|
	10, 59|
	10, 58|
	10, 57|
	10, 66|
	10, 26|
	10, 54|
	10, 27|
	10, 64|
	10, 68|
	10, 69|
	10, 70|
	10, 28|
	10, 72|
	10, 29|
	10, 30|
	10, 31|
	10, 55|
	10, 74|
	10, 32|
	10, 33|
	10, 34|
	10, 71|
	10, 35|
	10, 36|
	10, 37|
	10, 38|
	10, 39|
	10, 65|
	10, 77|
	10, 78|
	10, 41|
	10, 42|
	10, 82|
	10, 43|
	10, 44|
	10, 83|
	10, 73|
	10, 76|
	10, 45|
	10, 46|
	10, 47|
	10, 98|
	10, 95|
	10, 80|
	10, 92|
	10, 96|
	10, 49|
	10, 79|
	10, 50|
	10, 81|
	10, 99|
	10, 88|
	10, 89|
	10, 75|
	10, 97|
	10, 93|
	10, 63|
	10, 85|
	10, 67|
	10, 86|
	10, 56|
	10, 61|
	10, 91|
	10, 90|
	10, 84|
	10, 94|
	10, 100|
	10, 62|
	10, 53|
	11, 9|
	11, 17|
	11, 18|
	11, 19|
	11, 23|
	11, 24|
	11, 59|
	11, 58|
	11, 57|
	11, 66|
	11, 26|
	11, 54|
	11, 27|
	11, 64|
	11, 68|
	11, 69|
	11, 70|
	11, 28|
	11, 72|
	11, 29|
	11, 30|
	11, 31|
	11, 55|
	11, 74|
	11, 32|
	11, 33|
	11, 34|
	11, 71|
	11, 35|
	11, 36|
	11, 37|
	11, 38|
	11, 39|
	11, 65|
	11, 77|
	11, 78|
	11, 42|
	11, 82|
	11, 43|
	11, 44|
	11, 83|
	11, 76|
	11, 45|
	11, 46|
	11, 47|
	11, 98|
	11, 95|
	11, 80|
	11, 92|
	11, 96|
	11, 49|
	11, 79|
	11, 50|
	11, 81|
	11, 99|
	11, 88|
	11, 89|
	11, 75|
	11, 97|
	11, 63|
	11, 85|
	11, 86|
	11, 56|
	11, 61|
	11, 91|
	11, 90|
	11, 84|
	11, 94|
	11, 100|
	11, 62|
	11, 53|
	12, 17|
	12, 18|
	12, 19|
	12, 20|
	12, 23|
	12, 24|
	12, 57|
	12, 66|
	12, 26|
	12, 54|
	12, 27|
	12, 64|
	12, 68|
	12, 69|
	12, 70|
	12, 28|
	12, 72|
	12, 29|
	12, 30|
	12, 31|
	12, 55|
	12, 74|
	12, 32|
	12, 33|
	12, 34|
	12, 71|
	12, 35|
	12, 36|
	12, 37|
	12, 38|
	12, 39|
	12, 65|
	12, 77|
	12, 78|
	12, 82|
	12, 43|
	12, 44|
	12, 83|
	12, 45|
	12, 46|
	12, 47|
	12, 98|
	12, 95|
	12, 80|
	12, 92|
	12, 96|
	12, 49|
	12, 79|
	12, 50|
	12, 81|
	12, 99|
	12, 88|
	12, 89|
	12, 75|
	12, 97|
	12, 63|
	12, 56|
	12, 61|
	12, 91|
	12, 90|
	12, 84|
	12, 94|
	12, 100|
	12, 62|
	12, 53|
	13, 18|
	13, 19|
	13, 20|
	13, 21|
	13, 23|
	13, 24|
	13, 66|
	13, 26|
	13, 54|
	13, 64|
	13, 68|
	13, 69|
	13, 70|
	13, 28|
	13, 72|
	13, 29|
	13, 30|
	13, 31|
	13, 55|
	13, 74|
	13, 32|
	13, 33|
	13, 34|
	13, 71|
	13, 35|
	13, 36|
	13, 37|
	13, 38|
	13, 39|
	13, 65|
	13, 77|
	13, 78|
	13, 43|
	13, 44|
	13, 83|
	13, 46|
	13, 47|
	13, 98|
	13, 95|
	13, 80|
	13, 92|
	13, 96|
	13, 49|
	13, 79|
	13, 50|
	13, 81|
	13, 99|
	13, 88|
	13, 89|
	13, 75|
	13, 97|
	13, 63|
	13, 56|
	13, 61|
	13, 91|
	13, 90|
	13, 84|
	13, 94|
	13, 100|
	13, 62|
	13, 53|
	14, 19|
	14, 20|
	14, 21|
	14, 22|
	14, 23|
	14, 24|
	14, 66|
	14, 26|
	14, 54|
	14, 64|
	14, 69|
	14, 70|
	14, 28|
	14, 72|
	14, 29|
	14, 30|
	14, 31|
	14, 55|
	14, 74|
	14, 32|
	14, 33|
	14, 34|
	14, 71|
	14, 35|
	14, 36|
	14, 37|
	14, 38|
	14, 39|
	14, 65|
	14, 77|
	14, 78|
	14, 44|
	14, 83|
	14, 47|
	14, 98|
	14, 95|
	14, 80|
	14, 92|
	14, 96|
	14, 49|
	14, 79|
	14, 50|
	14, 81|
	14, 99|
	14, 88|
	14, 89|
	14, 75|
	14, 97|
	14, 63|
	14, 56|
	14, 61|
	14, 91|
	14, 90|
	14, 84|
	14, 94|
	14, 100|
	14, 62|
	14, 53|
	15, 2|
	15, 20|
	15, 21|
	15, 22|
	15, 23|
	15, 24|
	15, 26|
	15, 54|
	15, 64|
	15, 70|
	15, 28|
	15, 72|
	15, 29|
	15, 30|
	15, 31|
	15, 55|
	15, 74|
	15, 32|
	15, 33|
	15, 34|
	15, 71|
	15, 35|
	15, 36|
	15, 37|
	15, 38|
	15, 39|
	15, 65|
	15, 77|
	15, 78|
	15, 83|
	15, 98|
	15, 95|
	15, 80|
	15, 92|
	15, 96|
	15, 49|
	15, 79|
	15, 50|
	15, 81|
	15, 99|
	15, 88|
	15, 89|
	15, 75|
	15, 97|
	15, 63|
	15, 56|
	15, 61|
	15, 91|
	15, 90|
	15, 84|
	15, 94|
	15, 100|
	15, 62|
	15, 53|
	16, 2|
	16, 3|
	16, 21|
	16, 22|
	16, 23|
	16, 24|
	16, 54|
	16, 64|
	16, 28|
	16, 72|
	16, 29|
	16, 30|
	16, 31|
	16, 55|
	16, 74|
	16, 32|
	16, 33|
	16, 34|
	16, 71|
	16, 35|
	16, 36|
	16, 37|
	16, 38|
	16, 39|
	16, 65|
	16, 77|
	16, 78|
	16, 83|
	16, 98|
	16, 95|
	16, 80|
	16, 92|
	16, 96|
	16, 49|
	16, 79|
	16, 50|
	16, 81|
	16, 99|
	16, 88|
	16, 89|
	16, 75|
	16, 97|
	16, 63|
	16, 56|
	16, 61|
	16, 91|
	16, 90|
	16, 84|
	16, 94|
	16, 100|
	16, 62|
	16, 53|
	9, 23|
	9, 24|
	9, 25|
	9, 60|
	9, 59|
	9, 58|
	9, 57|
	9, 66|
	9, 26|
	9, 54|
	9, 27|
	9, 64|
	9, 68|
	9, 69|
	9, 70|
	9, 28|
	9, 72|
	9, 29|
	9, 30|
	9, 31|
	9, 55|
	9, 74|
	9, 32|
	9, 33|
	9, 35|
	9, 36|
	9, 37|
	9, 38|
	9, 39|
	9, 77|
	9, 78|
	9, 41|
	9, 42|
	9, 82|
	9, 43|
	9, 44|
	9, 83|
	9, 73|
	9, 76|
	9, 45|
	9, 46|
	9, 47|
	9, 98|
	9, 95|
	9, 80|
	9, 92|
	9, 96|
	9, 49|
	9, 79|
	9, 50|
	9, 81|
	9, 99|
	9, 88|
	9, 89|
	9, 75|
	9, 97|
	9, 93|
	9, 63|
	9, 85|
	9, 67|
	9, 86|
	9, 56|
	9, 61|
	9, 91|
	9, 90|
	9, 84|
	9, 94|
	9, 100|
	9, 62|
	9, 53|
	17, 23|
	17, 24|
	17, 59|
	17, 58|
	17, 57|
	17, 66|
	17, 26|
	17, 54|
	17, 27|
	17, 64|
	17, 68|
	17, 69|
	17, 70|
	17, 28|
	17, 72|
	17, 29|
	17, 30|
	17, 31|
	17, 55|
	17, 74|
	17, 32|
	17, 33|
	17, 34|
	17, 35|
	17, 36|
	17, 37|
	17, 38|
	17, 39|
	17, 65|
	17, 77|
	17, 78|
	17, 42|
	17, 82|
	17, 43|
	17, 44|
	17, 83|
	17, 76|
	17, 45|
	17, 46|
	17, 47|
	17, 98|
	17, 95|
	17, 80|
	17, 92|
	17, 96|
	17, 49|
	17, 79|
	17, 50|
	17, 81|
	17, 99|
	17, 88|
	17, 89|
	17, 75|
	17, 97|
	17, 63|
	17, 85|
	17, 86|
	17, 56|
	17, 61|
	17, 91|
	17, 90|
	17, 84|
	17, 94|
	17, 100|
	17, 62|
	17, 53|
	18, 23|
	18, 24|
	18, 57|
	18, 66|
	18, 26|
	18, 54|
	18, 27|
	18, 64|
	18, 68|
	18, 69|
	18, 70|
	18, 28|
	18, 72|
	18, 29|
	18, 30|
	18, 31|
	18, 55|
	18, 74|
	18, 32|
	18, 33|
	18, 34|
	18, 71|
	18, 35|
	18, 36|
	18, 37|
	18, 38|
	18, 39|
	18, 65|
	18, 77|
	18, 78|
	18, 82|
	18, 43|
	18, 44|
	18, 83|
	18, 45|
	18, 46|
	18, 47|
	18, 98|
	18, 95|
	18, 80|
	18, 92|
	18, 96|
	18, 49|
	18, 79|
	18, 50|
	18, 81|
	18, 99|
	18, 88|
	18, 89|
	18, 75|
	18, 97|
	18, 63|
	18, 56|
	18, 61|
	18, 91|
	18, 90|
	18, 84|
	18, 94|
	18, 100|
	18, 62|
	18, 53|
	19, 23|
	19, 24|
	19, 66|
	19, 26|
	19, 54|
	19, 64|
	19, 68|
	19, 69|
	19, 70|
	19, 28|
	19, 72|
	19, 29|
	19, 30|
	19, 31|
	19, 55|
	19, 74|
	19, 32|
	19, 33|
	19, 34|
	19, 71|
	19, 35|
	19, 36|
	19, 37|
	19, 38|
	19, 39|
	19, 65|
	19, 77|
	19, 78|
	19, 43|
	19, 44|
	19, 83|
	19, 46|
	19, 47|
	19, 98|
	19, 95|
	19, 80|
	19, 92|
	19, 96|
	19, 49|
	19, 79|
	19, 50|
	19, 81|
	19, 99|
	19, 88|
	19, 89|
	19, 75|
	19, 97|
	19, 63|
	19, 56|
	19, 61|
	19, 91|
	19, 90|
	19, 84|
	19, 94|
	19, 100|
	19, 62|
	19, 53|
	20, 23|
	20, 24|
	20, 66|
	20, 26|
	20, 54|
	20, 64|
	20, 69|
	20, 70|
	20, 28|
	20, 72|
	20, 29|
	20, 30|
	20, 31|
	20, 55|
	20, 74|
	20, 32|
	20, 33|
	20, 34|
	20, 71|
	20, 35|
	20, 36|
	20, 37|
	20, 38|
	20, 39|
	20, 65|
	20, 77|
	20, 78|
	20, 44|
	20, 83|
	20, 47|
	20, 98|
	20, 95|
	20, 80|
	20, 92|
	20, 96|
	20, 49|
	20, 79|
	20, 50|
	20, 81|
	20, 99|
	20, 88|
	20, 89|
	20, 75|
	20, 97|
	20, 63|
	20, 56|
	20, 61|
	20, 91|
	20, 90|
	20, 84|
	20, 94|
	20, 100|
	20, 62|
	20, 53|
	21, 23|
	21, 24|
	21, 26|
	21, 54|
	21, 64|
	21, 70|
	21, 28|
	21, 72|
	21, 29|
	21, 30|
	21, 31|
	21, 55|
	21, 74|
	21, 32|
	21, 33|
	21, 34|
	21, 71|
	21, 35|
	21, 36|
	21, 37|
	21, 38|
	21, 39|
	21, 65|
	21, 77|
	21, 78|
	21, 83|
	21, 98|
	21, 95|
	21, 80|
	21, 92|
	21, 96|
	21, 49|
	21, 79|
	21, 50|
	21, 81|
	21, 99|
	21, 88|
	21, 89|
	21, 75|
	21, 97|
	21, 63|
	21, 56|
	21, 61|
	21, 91|
	21, 90|
	21, 84|
	21, 94|
	21, 100|
	21, 62|
	21, 53|
	22, 23|
	22, 24|
	22, 54|
	22, 64|
	22, 28|
	22, 72|
	22, 29|
	22, 30|
	22, 31|
	22, 55|
	22, 74|
	22, 32|
	22, 33|
	22, 34|
	22, 71|
	22, 35|
	22, 36|
	22, 37|
	22, 38|
	22, 39|
	22, 65|
	22, 77|
	22, 78|
	22, 83|
	22, 98|
	22, 95|
	22, 80|
	22, 92|
	22, 96|
	22, 49|
	22, 79|
	22, 50|
	22, 81|
	22, 99|
	22, 88|
	22, 89|
	22, 75|
	22, 97|
	22, 63|
	22, 56|
	22, 61|
	22, 91|
	22, 90|
	22, 84|
	22, 94|
	22, 100|
	22, 62|
	22, 53|
	23, 63|
	23, 56|
	23, 61|
	23, 91|
	23, 90|
	23, 84|
	23, 100|
	23, 62|
	23, 53|
	24, 56|
	24, 61|
	24, 91|
	24, 90|
	24, 84|
	24, 94|
	24, 100|
	24, 62|
	24, 53|
	51, 93|
	51, 63|
	51, 85|
	51, 67|
	51, 86|
	51, 56|
	51, 61|
	51, 91|
	51, 90|
	51, 84|
	60, 51|
	60, 25|
	60, 59|
	60, 27|
	60, 93|
	60, 63|
	60, 85|
	60, 67|
	60, 86|
	60, 56|
	60, 61|
	60, 91|
	60, 90|
	60, 84|
	60, 62|
	60, 53|
	25, 93|
	25, 63|
	25, 85|
	25, 67|
	25, 86|
	25, 56|
	25, 61|
	25, 91|
	25, 90|
	25, 84|
	58, 25|
	58, 59|
	58, 27|
	58, 68|
	58, 93|
	58, 63|
	58, 85|
	58, 67|
	58, 86|
	58, 56|
	58, 61|
	58, 91|
	58, 90|
	58, 84|
	58, 62|
	58, 53|
	57, 59|
	57, 27|
	57, 68|
	57, 69|
	57, 63|
	57, 85|
	57, 86|
	57, 56|
	57, 61|
	57, 91|
	57, 90|
	57, 84|
	57, 100|
	57, 62|
	57, 53|
	66, 68|
	66, 69|
	66, 70|
	66, 28|
	66, 63|
	66, 56|
	66, 61|
	66, 91|
	66, 90|
	66, 84|
	66, 100|
	66, 62|
	66, 53|
	26, 69|
	26, 70|
	26, 28|
	26, 72|
	26, 63|
	26, 56|
	26, 61|
	26, 91|
	26, 90|
	26, 84|
	26, 100|
	26, 62|
	26, 53|
	54, 70|
	54, 28|
	54, 72|
	54, 63|
	54, 56|
	54, 61|
	54, 91|
	54, 90|
	54, 84|
	54, 100|
	54, 62|
	54, 53|
	59, 93|
	59, 63|
	59, 85|
	59, 67|
	59, 86|
	59, 56|
	59, 61|
	59, 91|
	59, 90|
	59, 84|
	59, 62|
	64, 90|
	64, 84|
	64, 94|
	64, 100|
	64, 62|
	64, 53|
	27, 63|
	27, 85|
	27, 86|
	27, 56|
	27, 61|
	27, 91|
	27, 90|
	27, 84|
	27, 62|
	27, 53|
	68, 63|
	68, 56|
	68, 61|
	68, 91|
	68, 90|
	68, 84|
	68, 62|
	68, 53|
	69, 63|
	69, 56|
	69, 61|
	69, 91|
	69, 90|
	69, 84|
	69, 100|
	69, 62|
	69, 53|
	70, 63|
	70, 56|
	70, 61|
	70, 91|
	70, 90|
	70, 84|
	70, 100|
	70, 62|
	70, 53|
	28, 63|
	28, 56|
	28, 61|
	28, 91|
	28, 90|
	28, 84|
	28, 100|
	28, 62|
	28, 53|
	72, 63|
	72, 56|
	72, 61|
	72, 91|
	72, 90|
	72, 84|
	72, 100|
	72, 62|
	72, 53|
	30, 64|
	30, 98|
	30, 95|
	30, 80|
	30, 92|
	30, 96|
	30, 49|
	30, 90|
	30, 84|
	30, 94|
	30, 100|
	30, 62|
	30, 53|
	31, 64|
	31, 98|
	31, 95|
	31, 80|
	31, 92|
	31, 96|
	31, 49|
	31, 90|
	31, 84|
	31, 94|
	31, 100|
	31, 62|
	31, 53|
	55, 64|
	55, 98|
	55, 95|
	55, 80|
	55, 92|
	55, 96|
	55, 49|
	55, 90|
	55, 84|
	55, 94|
	55, 100|
	55, 62|
	55, 53|
	74, 98|
	74, 95|
	74, 80|
	74, 92|
	74, 96|
	74, 49|
	74, 90|
	74, 84|
	74, 94|
	74, 100|
	74, 62|
	74, 53|
	32, 98|
	32, 95|
	32, 80|
	32, 92|
	32, 96|
	32, 49|
	32, 90|
	32, 84|
	32, 94|
	32, 100|
	32, 62|
	32, 53|
	33, 98|
	33, 95|
	33, 80|
	33, 92|
	33, 96|
	33, 49|
	33, 90|
	33, 84|
	33, 94|
	33, 100|
	33, 62|
	33, 53|
	34, 98|
	34, 95|
	34, 80|
	34, 92|
	34, 96|
	34, 49|
	34, 90|
	34, 84|
	34, 94|
	34, 100|
	34, 62|
	34, 53|
	71, 98|
	71, 95|
	71, 80|
	71, 92|
	71, 96|
	71, 49|
	71, 90|
	71, 84|
	71, 94|
	71, 100|
	71, 62|
	71, 53|
	29, 64|
	29, 30|
	29, 77|
	29, 78|
	29, 98|
	29, 95|
	29, 80|
	29, 92|
	29, 96|
	29, 49|
	29, 61|
	29, 90|
	29, 84|
	29, 94|
	29, 100|
	29, 62|
	29, 53|
	35, 64|
	35, 30|
	35, 31|
	35, 77|
	35, 78|
	35, 98|
	35, 95|
	35, 80|
	35, 92|
	35, 96|
	35, 49|
	35, 90|
	35, 84|
	35, 94|
	35, 100|
	35, 62|
	35, 53|
	36, 64|
	36, 30|
	36, 31|
	36, 55|
	36, 78|
	36, 98|
	36, 95|
	36, 80|
	36, 92|
	36, 96|
	36, 49|
	36, 90|
	36, 84|
	36, 94|
	36, 100|
	36, 62|
	36, 53|
	37, 64|
	37, 30|
	37, 31|
	37, 55|
	37, 74|
	37, 98|
	37, 95|
	37, 80|
	37, 92|
	37, 96|
	37, 49|
	37, 90|
	37, 84|
	37, 94|
	37, 100|
	37, 62|
	37, 53|
	38, 64|
	38, 31|
	38, 55|
	38, 74|
	38, 32|
	38, 98|
	38, 95|
	38, 80|
	38, 92|
	38, 96|
	38, 49|
	38, 90|
	38, 84|
	38, 94|
	38, 100|
	38, 62|
	38, 53|
	39, 55|
	39, 74|
	39, 32|
	39, 33|
	39, 98|
	39, 95|
	39, 80|
	39, 92|
	39, 96|
	39, 49|
	39, 90|
	39, 84|
	39, 94|
	39, 100|
	39, 62|
	39, 53|
	65, 74|
	65, 32|
	65, 33|
	65, 34|
	65, 98|
	65, 95|
	65, 80|
	65, 92|
	65, 96|
	65, 49|
	65, 90|
	65, 84|
	65, 94|
	65, 100|
	65, 62|
	65, 53|
	77, 64|
	77, 98|
	77, 95|
	77, 80|
	77, 92|
	77, 96|
	77, 49|
	77, 61|
	77, 90|
	77, 84|
	77, 94|
	77, 100|
	77, 62|
	77, 53|
	78, 64|
	78, 98|
	78, 95|
	78, 80|
	78, 92|
	78, 96|
	78, 49|
	78, 90|
	78, 84|
	78, 94|
	78, 100|
	78, 62|
	78, 53|
	41, 51|
	41, 23|
	41, 24|
	41, 25|
	41, 60|
	41, 59|
	41, 58|
	41, 57|
	41, 66|
	41, 26|
	41, 54|
	41, 27|
	41, 64|
	41, 68|
	41, 69|
	41, 70|
	41, 28|
	41, 72|
	41, 79|
	41, 50|
	41, 81|
	41, 99|
	41, 88|
	41, 89|
	41, 75|
	41, 97|
	41, 93|
	41, 63|
	41, 85|
	41, 67|
	41, 86|
	41, 56|
	41, 61|
	41, 91|
	41, 90|
	41, 84|
	41, 94|
	41, 100|
	41, 62|
	41, 53|
	42, 23|
	42, 24|
	42, 25|
	42, 60|
	42, 59|
	42, 58|
	42, 57|
	42, 66|
	42, 26|
	42, 54|
	42, 27|
	42, 64|
	42, 68|
	42, 69|
	42, 70|
	42, 28|
	42, 72|
	42, 79|
	42, 50|
	42, 81|
	42, 99|
	42, 88|
	42, 89|
	42, 75|
	42, 97|
	42, 93|
	42, 63|
	42, 85|
	42, 67|
	42, 86|
	42, 56|
	42, 61|
	42, 91|
	42, 90|
	42, 84|
	42, 94|
	42, 100|
	42, 62|
	42, 53|
	82, 23|
	82, 24|
	82, 59|
	82, 58|
	82, 57|
	82, 66|
	82, 26|
	82, 54|
	82, 27|
	82, 64|
	82, 68|
	82, 69|
	82, 70|
	82, 28|
	82, 72|
	82, 79|
	82, 50|
	82, 81|
	82, 99|
	82, 88|
	82, 89|
	82, 75|
	82, 97|
	82, 63|
	82, 85|
	82, 86|
	82, 56|
	82, 61|
	82, 91|
	82, 90|
	82, 84|
	82, 94|
	82, 100|
	82, 62|
	82, 53|
	43, 23|
	43, 24|
	43, 57|
	43, 66|
	43, 26|
	43, 54|
	43, 27|
	43, 64|
	43, 68|
	43, 69|
	43, 70|
	43, 28|
	43, 72|
	43, 79|
	43, 50|
	43, 81|
	43, 99|
	43, 88|
	43, 89|
	43, 75|
	43, 97|
	43, 63|
	43, 56|
	43, 61|
	43, 91|
	43, 90|
	43, 84|
	43, 94|
	43, 100|
	43, 62|
	43, 53|
	44, 23|
	44, 24|
	44, 66|
	44, 26|
	44, 54|
	44, 64|
	44, 68|
	44, 69|
	44, 70|
	44, 28|
	44, 72|
	44, 79|
	44, 50|
	44, 81|
	44, 99|
	44, 88|
	44, 89|
	44, 75|
	44, 97|
	44, 63|
	44, 56|
	44, 61|
	44, 91|
	44, 90|
	44, 84|
	44, 94|
	44, 100|
	44, 62|
	44, 53|
	83, 23|
	83, 24|
	83, 54|
	83, 64|
	83, 28|
	83, 72|
	83, 79|
	83, 50|
	83, 81|
	83, 99|
	83, 88|
	83, 89|
	83, 75|
	83, 97|
	83, 63|
	83, 56|
	83, 61|
	83, 91|
	83, 90|
	83, 84|
	83, 94|
	83, 100|
	83, 62|
	83, 53|
	40, 51|
	40, 23|
	40, 24|
	40, 25|
	40, 60|
	40, 59|
	40, 58|
	40, 57|
	40, 66|
	40, 26|
	40, 54|
	40, 27|
	40, 64|
	40, 68|
	40, 69|
	40, 70|
	40, 28|
	40, 72|
	40, 41|
	40, 48|
	40, 52|
	40, 79|
	40, 50|
	40, 81|
	40, 99|
	40, 88|
	40, 89|
	40, 75|
	40, 97|
	40, 93|
	40, 63|
	40, 85|
	40, 67|
	40, 86|
	40, 56|
	40, 61|
	40, 91|
	40, 90|
	40, 84|
	40, 94|
	40, 100|
	40, 62|
	40, 53|
	87, 51|
	87, 23|
	87, 24|
	87, 25|
	87, 60|
	87, 59|
	87, 58|
	87, 57|
	87, 66|
	87, 26|
	87, 54|
	87, 27|
	87, 64|
	87, 68|
	87, 69|
	87, 70|
	87, 28|
	87, 72|
	87, 41|
	87, 42|
	87, 48|
	87, 52|
	87, 79|
	87, 50|
	87, 81|
	87, 99|
	87, 88|
	87, 89|
	87, 75|
	87, 97|
	87, 93|
	87, 63|
	87, 85|
	87, 67|
	87, 86|
	87, 56|
	87, 61|
	87, 91|
	87, 90|
	87, 84|
	87, 94|
	87, 100|
	87, 62|
	87, 53|
	73, 51|
	73, 23|
	73, 24|
	73, 25|
	73, 60|
	73, 59|
	73, 58|
	73, 57|
	73, 66|
	73, 26|
	73, 54|
	73, 27|
	73, 64|
	73, 68|
	73, 69|
	73, 70|
	73, 28|
	73, 72|
	73, 41|
	73, 42|
	73, 82|
	73, 52|
	73, 79|
	73, 50|
	73, 81|
	73, 99|
	73, 88|
	73, 89|
	73, 75|
	73, 97|
	73, 93|
	73, 63|
	73, 85|
	73, 67|
	73, 86|
	73, 56|
	73, 61|
	73, 91|
	73, 90|
	73, 84|
	73, 94|
	73, 100|
	73, 62|
	73, 53|
	76, 23|
	76, 24|
	76, 25|
	76, 60|
	76, 59|
	76, 58|
	76, 57|
	76, 66|
	76, 26|
	76, 54|
	76, 27|
	76, 64|
	76, 68|
	76, 69|
	76, 70|
	76, 28|
	76, 72|
	76, 41|
	76, 42|
	76, 82|
	76, 43|
	76, 79|
	76, 50|
	76, 81|
	76, 99|
	76, 88|
	76, 89|
	76, 75|
	76, 97|
	76, 93|
	76, 63|
	76, 85|
	76, 67|
	76, 86|
	76, 56|
	76, 61|
	76, 91|
	76, 90|
	76, 84|
	76, 94|
	76, 100|
	76, 62|
	76, 53|
	45, 23|
	45, 24|
	45, 59|
	45, 58|
	45, 57|
	45, 66|
	45, 26|
	45, 54|
	45, 27|
	45, 64|
	45, 68|
	45, 69|
	45, 70|
	45, 28|
	45, 72|
	45, 42|
	45, 82|
	45, 43|
	45, 44|
	45, 79|
	45, 50|
	45, 81|
	45, 99|
	45, 88|
	45, 89|
	45, 75|
	45, 97|
	45, 63|
	45, 85|
	45, 86|
	45, 56|
	45, 61|
	45, 91|
	45, 90|
	45, 84|
	45, 94|
	45, 100|
	45, 62|
	45, 53|
	46, 23|
	46, 24|
	46, 57|
	46, 66|
	46, 26|
	46, 54|
	46, 27|
	46, 64|
	46, 68|
	46, 69|
	46, 70|
	46, 28|
	46, 72|
	46, 82|
	46, 43|
	46, 44|
	46, 79|
	46, 50|
	46, 81|
	46, 99|
	46, 88|
	46, 89|
	46, 75|
	46, 97|
	46, 63|
	46, 56|
	46, 61|
	46, 91|
	46, 90|
	46, 84|
	46, 94|
	46, 100|
	46, 62|
	46, 53|
	47, 23|
	47, 24|
	47, 66|
	47, 26|
	47, 54|
	47, 64|
	47, 68|
	47, 69|
	47, 70|
	47, 28|
	47, 72|
	47, 43|
	47, 44|
	47, 79|
	47, 50|
	47, 81|
	47, 99|
	47, 88|
	47, 89|
	47, 75|
	47, 97|
	47, 63|
	47, 56|
	47, 61|
	47, 91|
	47, 90|
	47, 84|
	47, 94|
	47, 100|
	47, 62|
	47, 53|
	48, 51|
	48, 23|
	48, 24|
	48, 25|
	48, 60|
	48, 59|
	48, 58|
	48, 57|
	48, 66|
	48, 26|
	48, 54|
	48, 27|
	48, 64|
	48, 68|
	48, 69|
	48, 70|
	48, 28|
	48, 72|
	48, 79|
	48, 50|
	48, 81|
	48, 99|
	48, 88|
	48, 89|
	48, 75|
	48, 97|
	48, 93|
	48, 63|
	48, 85|
	48, 67|
	48, 86|
	48, 56|
	48, 61|
	48, 91|
	48, 90|
	48, 84|
	48, 94|
	48, 100|
	48, 62|
	48, 53|
	52, 51|
	52, 23|
	52, 24|
	52, 25|
	52, 60|
	52, 59|
	52, 58|
	52, 57|
	52, 66|
	52, 26|
	52, 54|
	52, 27|
	52, 64|
	52, 68|
	52, 69|
	52, 70|
	52, 28|
	52, 72|
	52, 79|
	52, 50|
	52, 81|
	52, 99|
	52, 88|
	52, 89|
	52, 75|
	52, 97|
	52, 93|
	52, 63|
	52, 85|
	52, 67|
	52, 86|
	52, 56|
	52, 61|
	52, 91|
	52, 90|
	52, 84|
	52, 94|
	52, 100|
	52, 62|
	52, 53|
	95, 84|
	95, 94|
	95, 100|
	95, 62|
	95, 53|
	80, 94|
	80, 100|
	80, 62|
	80, 53|
	92, 94|
	92, 100|
	92, 62|
	92, 53|
	98, 96|
	98, 49|
	98, 90|
	98, 84|
	98, 94|
	98, 100|
	98, 62|
	98, 53|
	96, 90|
	96, 84|
	96, 94|
	96, 100|
	96, 62|
	96, 53|
	49, 90|
	49, 84|
	49, 94|
	49, 100|
	49, 62|
	49, 53|
	50, 23|
	50, 24|
	50, 64|
	50, 72|
	50, 63|
	50, 56|
	50, 61|
	50, 91|
	50, 90|
	50, 84|
	50, 94|
	50, 100|
	50, 62|
	50, 53|
	81, 23|
	81, 24|
	81, 64|
	81, 56|
	81, 61|
	81, 91|
	81, 90|
	81, 84|
	81, 94|
	81, 100|
	81, 62|
	81, 53|
	79, 23|
	79, 24|
	79, 26|
	79, 54|
	79, 64|
	79, 70|
	79, 28|
	79, 72|
	79, 50|
	79, 75|
	79, 97|
	79, 63|
	79, 56|
	79, 61|
	79, 91|
	79, 90|
	79, 84|
	79, 94|
	79, 100|
	79, 62|
	79, 53|
	99, 23|
	99, 24|
	99, 54|
	99, 64|
	99, 28|
	99, 72|
	99, 50|
	99, 81|
	99, 75|
	99, 97|
	99, 63|
	99, 56|
	99, 61|
	99, 91|
	99, 90|
	99, 84|
	99, 94|
	99, 100|
	99, 62|
	99, 53|
	88, 23|
	88, 24|
	88, 64|
	88, 72|
	88, 50|
	88, 81|
	88, 97|
	88, 63|
	88, 56|
	88, 61|
	88, 91|
	88, 90|
	88, 84|
	88, 94|
	88, 100|
	88, 62|
	88, 53|
	89, 23|
	89, 24|
	89, 64|
	89, 50|
	89, 81|
	89, 56|
	89, 61|
	89, 91|
	89, 90|
	89, 84|
	89, 94|
	89, 100|
	89, 62|
	89, 53|
	75, 23|
	75, 24|
	75, 26|
	75, 54|
	75, 64|
	75, 70|
	75, 28|
	75, 72|
	75, 63|
	75, 56|
	75, 61|
	75, 91|
	75, 90|
	75, 84|
	75, 94|
	75, 100|
	75, 62|
	75, 53|
	97, 23|
	97, 24|
	97, 54|
	97, 64|
	97, 28|
	97, 72|
	97, 63|
	97, 56|
	97, 61|
	97, 91|
	97, 90|
	97, 84|
	97, 94|
	97, 100|
	97, 62|
	97, 53|
	93, 67|
	93, 86|
	85, 67|
	85, 86|
	56, 91|
	61, 91|
	90, 84|
	100, 62|
	100, 53|];
DisjunctiveConstraints =  [|2, 22, 2, 3|
	2, 66, 16, 2|
	2, 68, 18, 2|
	2, 69, 19, 2|
	2, 83, 33, 2|
	2, 49, 2, 99|
	2, 88, 2, 38|
	2, 97, 2, 47|
	2, 63, 2, 13|
	2, 85, 35, 2|
	2, 86, 36, 2|
	3, 2, 3, 4|
	3, 23, 3, 73|
	3, 66, 16, 3|
	3, 26, 76, 3|
	3, 69, 19, 3|
	3, 70, 20, 3|
	3, 83, 33, 3|
	3, 81, 3, 31|
	3, 79, 29, 3|
	3, 88, 3, 38|
	3, 89, 3, 39|
	3, 75, 25, 3|
	3, 100, 3, 50|
	4, 3, 4, 5|
	4, 24, 4, 74|
	4, 26, 76, 4|
	4, 70, 20, 4|
	4, 28, 78, 4|
	4, 81, 4, 31|
	4, 99, 49, 4|
	4, 89, 4, 39|
	4, 75, 25, 4|
	4, 97, 47, 4|
	5, 54, 4, 5|
	5, 28, 78, 5|
	5, 72, 22, 5|
	5, 50, 100, 5|
	5, 88, 38, 5|
	5, 97, 47, 5|
	1, 37, 1, 87|
	1, 40, 90, 1|
	1, 52, 1, 2|
	7, 37, 7, 87|
	7, 52, 7, 2|
	8, 7, 8, 10|
	8, 23, 8, 73|
	8, 60, 8, 10|
	8, 25, 8, 75|
	8, 40, 90, 8|
	8, 48, 98, 8|
	8, 93, 8, 43|
	8, 67, 8, 17|
	8, 91, 8, 41|
	6, 1, 6, 9|
	6, 23, 6, 73|
	6, 60, 6, 10|
	6, 25, 6, 75|
	6, 40, 90, 6|
	6, 87, 37, 6|
	6, 48, 98, 6|
	6, 93, 6, 43|
	6, 67, 6, 17|
	6, 91, 6, 41|
	10, 8, 10, 11|
	10, 58, 10, 8|
	10, 26, 10, 76|
	10, 87, 37, 10|
	10, 52, 2, 10|
	10, 92, 10, 42|
	10, 85, 10, 35|
	10, 86, 10, 36|
	11, 10, 11, 12|
	11, 57, 11, 7|
	11, 27, 11, 77|
	11, 41, 91, 11|
	11, 82, 11, 32|
	11, 73, 23, 11|
	11, 95, 11, 45|
	12, 11, 12, 13|
	12, 42, 92, 12|
	12, 76, 26, 12|
	12, 45, 95, 12|
	12, 96, 12, 46|
	12, 93, 12, 43|
	13, 12, 13, 14|
	13, 51, 1, 13|
	13, 66, 13, 16|
	13, 82, 32, 13|
	13, 45, 95, 13|
	13, 46, 96, 13|
	13, 97, 13, 47|
	13, 94, 13, 44|
	14, 13, 14, 15|
	14, 60, 10, 14|
	14, 25, 75, 14|
	14, 26, 14, 76|
	14, 43, 93, 14|
	14, 46, 96, 14|
	14, 47, 97, 14|
	15, 14, 15, 16|
	15, 25, 15, 75|
	15, 58, 8, 15|
	15, 54, 15, 4|
	15, 59, 9, 15|
	15, 28, 15, 78|
	15, 44, 94, 15|
	15, 47, 97, 15|
	15, 79, 15, 29|
	16, 25, 16, 75|
	16, 57, 7, 16|
	16, 27, 77, 16|
	16, 83, 16, 33|
	16, 49, 16, 99|
	16, 79, 16, 29|
	16, 97, 16, 47|
	16, 63, 16, 13|
	16, 93, 43, 16|
	16, 67, 17, 16|
	9, 6, 9, 17|
	9, 58, 9, 8|
	9, 26, 9, 76|
	9, 87, 37, 9|
	9, 73, 23, 9|
	9, 52, 2, 9|
	9, 92, 9, 42|
	9, 85, 9, 35|
	9, 86, 9, 36|
	17, 9, 17, 18|
	17, 57, 17, 7|
	17, 27, 17, 77|
	17, 41, 91, 17|
	17, 42, 92, 17|
	17, 82, 17, 32|
	17, 73, 23, 17|
	17, 76, 26, 17|
	17, 95, 17, 45|
	17, 93, 17, 43|
	18, 17, 18, 19|
	18, 42, 92, 18|
	18, 82, 32, 18|
	18, 76, 26, 18|
	18, 45, 95, 18|
	18, 96, 18, 46|
	18, 93, 18, 43|
	19, 18, 19, 20|
	19, 51, 1, 19|
	19, 66, 19, 16|
	19, 82, 32, 19|
	19, 43, 93, 19|
	19, 45, 95, 19|
	19, 46, 96, 19|
	19, 97, 19, 47|
	19, 94, 19, 44|
	20, 19, 20, 21|
	20, 60, 10, 20|
	20, 25, 75, 20|
	20, 58, 8, 20|
	20, 26, 20, 76|
	20, 43, 93, 20|
	20, 44, 94, 20|
	20, 46, 96, 20|
	20, 47, 97, 20|
	21, 20, 21, 22|
	21, 25, 21, 75|
	21, 58, 8, 21|
	21, 57, 7, 21|
	21, 54, 21, 4|
	21, 59, 9, 21|
	21, 28, 21, 78|
	21, 44, 94, 21|
	21, 47, 97, 21|
	21, 79, 21, 29|
	22, 21, 22, 2|
	22, 25, 22, 75|
	22, 57, 7, 22|
	22, 27, 77, 22|
	22, 68, 18, 22|
	22, 83, 22, 33|
	22, 49, 22, 99|
	22, 79, 22, 29|
	22, 97, 22, 47|
	22, 63, 22, 13|
	22, 93, 43, 22|
	22, 67, 17, 22|
	23, 72, 23, 24|
	24, 63, 13, 24|
	60, 93, 60, 43|
	60, 67, 60, 17|
	25, 51, 25, 59|
	25, 93, 25, 43|
	25, 67, 25, 17|
	58, 60, 58, 57|
	58, 85, 58, 35|
	58, 86, 58, 36|
	57, 58, 57, 66|
	57, 93, 43, 57|
	57, 67, 17, 57|
	66, 57, 66, 26|
	26, 66, 26, 54|
	59, 25, 59, 27|
	59, 85, 59, 35|
	59, 86, 59, 36|
	27, 59, 27, 68|
	27, 93, 43, 27|
	27, 67, 17, 27|
	68, 27, 68, 69|
	68, 85, 35, 68|
	68, 86, 36, 68|
	69, 68, 69, 70|
	70, 69, 70, 28|
	28, 70, 28, 72|
	72, 28, 72, 23|
	72, 63, 72, 13|
	30, 78, 30, 31|
	30, 56, 6, 30|
	31, 64, 31, 14|
	31, 30, 31, 55|
	31, 56, 6, 31|
	31, 61, 11, 31|
	31, 91, 41, 31|
	55, 31, 55, 74|
	55, 61, 11, 55|
	55, 91, 41, 55|
	74, 64, 14, 74|
	74, 55, 74, 32|
	32, 64, 14, 32|
	32, 74, 32, 33|
	33, 32, 33, 34|
	34, 33, 34, 71|
	34, 98, 34, 48|
	34, 96, 34, 46|
	71, 49, 71, 99|
	35, 29, 35, 36|
	36, 35, 36, 37|
	37, 64, 37, 14|
	37, 36, 37, 38|
	37, 56, 6, 37|
	37, 61, 11, 37|
	38, 37, 38, 39|
	38, 61, 11, 38|
	38, 91, 41, 38|
	39, 38, 39, 65|
	65, 64, 14, 65|
	78, 77, 78, 30|
	41, 60, 41, 10|
	41, 25, 41, 75|
	41, 52, 41, 42|
	41, 93, 41, 43|
	41, 67, 41, 17|
	42, 60, 42, 10|
	42, 25, 42, 75|
	42, 58, 42, 8|
	42, 59, 42, 9|
	42, 41, 42, 82|
	42, 85, 42, 35|
	42, 86, 42, 36|
	82, 51, 1, 82|
	82, 57, 82, 7|
	82, 27, 82, 77|
	82, 42, 82, 43|
	43, 60, 10, 43|
	43, 25, 75, 43|
	43, 27, 43, 77|
	43, 68, 43, 18|
	43, 82, 43, 44|
	44, 58, 8, 44|
	44, 66, 44, 16|
	44, 59, 9, 44|
	44, 69, 44, 19|
	83, 25, 83, 75|
	83, 66, 16, 83|
	83, 69, 19, 83|
	83, 28, 83, 78|
	83, 72, 83, 22|
	83, 97, 83, 47|
	87, 51, 87, 1|
	87, 40, 87, 73|
	73, 60, 73, 10|
	73, 25, 73, 75|
	73, 87, 73, 76|
	73, 93, 73, 43|
	73, 67, 73, 17|
	76, 60, 76, 10|
	76, 25, 76, 75|
	76, 58, 76, 8|
	76, 59, 76, 9|
	76, 73, 76, 45|
	76, 85, 76, 35|
	76, 86, 76, 36|
	45, 51, 1, 45|
	45, 57, 45, 7|
	45, 27, 45, 77|
	45, 76, 45, 46|
	46, 60, 10, 46|
	46, 25, 75, 46|
	46, 27, 46, 77|
	46, 68, 46, 18|
	46, 45, 46, 47|
	47, 58, 8, 47|
	47, 66, 47, 16|
	47, 59, 9, 47|
	47, 69, 47, 19|
	52, 51, 52, 1|
	52, 48, 52, 41|
	80, 95, 80, 92|
	80, 90, 40, 80|
	92, 84, 34, 92|
	49, 90, 49, 40|
	50, 23, 50, 73|
	50, 72, 22, 50|
	50, 97, 50, 81|
	81, 23, 81, 73|
	81, 24, 81, 74|
	79, 26, 76, 79|
	79, 54, 79, 4|
	79, 70, 20, 79|
	79, 28, 79, 78|
	79, 72, 79, 22|
	99, 54, 4, 99|
	99, 28, 78, 99|
	99, 72, 99, 22|
	99, 79, 99, 88|
	99, 63, 99, 13|
	88, 23, 88, 73|
	88, 72, 22, 88|
	88, 99, 88, 89|
	89, 23, 89, 73|
	89, 24, 89, 74|
	75, 26, 76, 75|
	75, 54, 75, 4|
	75, 70, 20, 75|
	75, 28, 75, 78|
	75, 72, 75, 22|
	97, 54, 4, 97|
	97, 28, 78, 97|
	97, 72, 97, 22|
	97, 75, 97, 50|
	97, 63, 97, 13|];
SoftAtomicConstraints =  [|
22, 2|
2, 3|
3, 4|
4, 5|
1, 6|
7, 8|
6, 9|
8, 10|
10, 11|
11, 12|
12, 13|
13, 14|
14, 15|
15, 16|
9, 17|
17, 18|
18, 19|
19, 20|
20, 21|
21, 22|
72, 23|
23, 24|
51, 25|
66, 26|
59, 27|
70, 28|
78, 30|
30, 31|
74, 32|
32, 33|
33, 34|
29, 35|
35, 36|
36, 37|
37, 38|
38, 39|
52, 41|
41, 42|
82, 43|
43, 44|
76, 45|
45, 46|
46, 47|
96, 49|
97, 50|
48, 52|
62, 53|
26, 54|
31, 55|
85, 56|
58, 57|
60, 58|
25, 59|
56, 61|
84, 62|
86, 63|
54, 64|
39, 65|
57, 66|
27, 68|
68, 69|
69, 70|
34, 71|
28, 72|
87, 73|
55, 74|
73, 76|
77, 78|
95, 80|
50, 81|
42, 82|
44, 83|
91, 84|
93, 85|
67, 86|
40, 87|
99, 88|
88, 89|
61, 90|
63, 91|
80, 92|
53, 94|
49, 95|
75, 97|
79, 99|
90, 100|];
DirectSuccessors =  [];
